(set-logic ALL)
(set-option :produce-models true)
(declare-sort BoundSet 0)
(declare-sort UnboundSet 0)
(set-option :finite-model-find true)
(declare-fun IsDropped (BoundSet BoundSet) Bool)
(declare-fun Causes (BoundSet BoundSet) Bool)
(assert (not (=> (exists ((b BoundSet)) (exists ((a BoundSet)) (IsDropped a b))) (exists ((d BoundSet)) (exists ((c BoundSet)) (Causes c d))))))
(check-sat)
(get-model)